c File: instances/36_0.35_1.col
c
c Description: Random graph of size 36 vertices and P(0.35) of edges between any two vertices.
p col 36 630
e 1 2
e 1 5
e 1 6
e 1 7
e 1 9
e 1 10
e 1 13
e 1 14
e 1 17
e 1 19
e 1 22
e 1 24
e 1 28
e 1 30
e 1 35
e 1 36
e 2 4
e 2 5
e 2 10
e 2 12
e 2 14
e 2 17
e 2 18
e 2 23
e 2 28
e 2 30
e 2 31
e 2 35
e 3 6
e 3 11
e 3 15
e 3 19
e 3 22
e 3 23
e 3 27
e 3 32
e 3 34
e 4 9
e 4 10
e 4 17
e 4 19
e 4 20
e 4 23
e 4 24
e 4 30
e 4 35
e 5 7
e 5 8
e 5 9
e 5 10
e 5 11
e 5 13
e 5 17
e 5 18
e 5 21
e 5 23
e 5 25
e 5 29
e 6 10
e 6 23
e 6 26
e 6 29
e 6 32
e 6 33
e 7 8
e 7 15
e 7 17
e 7 18
e 7 23
e 7 29
e 8 9
e 8 10
e 8 11
e 8 12
e 8 14
e 8 18
e 8 22
e 8 23
e 8 24
e 8 25
e 8 27
e 9 13
e 9 17
e 9 18
e 9 19
e 9 21
e 9 22
e 9 27
e 9 29
e 9 31
e 9 32
e 9 35
e 10 14
e 10 16
e 10 17
e 10 19
e 10 24
e 10 27
e 10 29
e 10 30
e 10 32
e 10 34
e 11 14
e 11 16
e 11 18
e 11 21
e 11 26
e 11 27
e 11 32
e 11 34
e 12 13
e 12 18
e 12 21
e 12 22
e 12 23
e 12 24
e 12 27
e 12 29
e 12 31
e 12 34
e 12 35
e 12 36
e 13 14
e 13 17
e 13 19
e 13 24
e 13 26
e 13 30
e 13 34
e 14 15
e 14 16
e 14 20
e 14 32
e 14 34
e 14 35
e 15 19
e 15 22
e 15 23
e 15 25
e 15 26
e 15 30
e 15 32
e 16 20
e 16 26
e 16 29
e 16 30
e 16 33
e 16 34
e 16 35
e 16 36
e 17 18
e 17 20
e 17 21
e 17 22
e 17 26
e 17 28
e 18 21
e 18 22
e 18 23
e 18 24
e 18 26
e 18 27
e 18 31
e 18 32
e 18 36
e 19 24
e 19 29
e 20 21
e 20 26
e 20 28
e 20 31
e 21 23
e 21 24
e 21 25
e 21 27
e 21 30
e 21 34
e 22 23
e 22 27
e 22 30
e 22 34
e 23 26
e 23 28
e 23 29
e 23 30
e 23 31
e 24 29
e 24 30
e 24 31
e 24 34
e 24 35
e 24 36
e 25 26
e 25 30
e 25 34
e 26 31
e 26 33
e 26 34
e 26 35
e 27 32
e 28 31
e 28 32
e 28 35
e 28 36
e 29 30
e 29 32
e 29 33
e 29 34
e 29 35
e 29 36
e 30 33
e 31 32
e 32 33
e 32 35
e 32 36
e 33 35
e 34 35
e 34 36